VER
4

OBJSENSE
MIN


QKDCONES
1 168
24 2 144 36 0
0 0 0 0.7071067811865476
0 2 1 0.7071067811865476
0 24 12 0.7071067811865476
0 26 13 0.7071067811865476
0 48 24 0.7071067811865476
0 50 25 0.7071067811865476
0 78 3 0.7071067811865476
0 80 4 0.7071067811865476
0 102 15 0.7071067811865476
0 104 16 0.7071067811865476
0 126 27 0.7071067811865476
0 128 28 0.7071067811865476
1 13 6 0.7071067811865476
1 15 7 0.7071067811865476
1 37 18 0.7071067811865476
1 39 19 0.7071067811865476
1 61 30 0.7071067811865476
1 63 31 0.7071067811865476
1 91 9 0.7071067811865476
1 93 10 0.7071067811865476
1 115 21 0.7071067811865476
1 117 22 0.7071067811865476
1 139 33 0.7071067811865476
1 141 34 0.7071067811865476
144 2 144 144 0
0 0 0 1.0
0 1 1 1.0
0 2 2 1.0
0 3 3 1.0
0 4 4 1.0
0 5 5 1.0
0 6 6 1.0
0 7 7 1.0
0 8 8 1.0
0 9 9 1.0
0 10 10 1.0
0 11 11 1.0
0 12 12 1.0
0 13 13 1.0
0 14 14 1.0
0 15 15 1.0
0 16 16 1.0
0 17 17 1.0
0 18 18 1.0
0 19 19 1.0
0 20 20 1.0
0 21 21 1.0
0 22 22 1.0
0 23 23 1.0
0 24 24 1.0
0 25 25 1.0
0 26 26 1.0
0 27 27 1.0
0 28 28 1.0
0 29 29 1.0
0 30 30 1.0
0 31 31 1.0
0 32 32 1.0
0 33 33 1.0
0 34 34 1.0
0 35 35 1.0
0 36 36 1.0
0 37 37 1.0
0 38 38 1.0
0 39 39 1.0
0 40 40 1.0
0 41 41 1.0
0 42 42 1.0
0 43 43 1.0
0 44 44 1.0
0 45 45 1.0
0 46 46 1.0
0 47 47 1.0
0 48 48 1.0
0 49 49 1.0
0 50 50 1.0
0 51 51 1.0
0 52 52 1.0
0 53 53 1.0
0 54 54 1.0
0 55 55 1.0
0 56 56 1.0
0 57 57 1.0
0 58 58 1.0
0 59 59 1.0
0 60 60 1.0
0 61 61 1.0
0 62 62 1.0
0 63 63 1.0
0 64 64 1.0
0 65 65 1.0
0 66 66 1.0
0 67 67 1.0
0 68 68 1.0
0 69 69 1.0
0 70 70 1.0
0 71 71 1.0
1 72 72 1.0
1 73 73 1.0
1 74 74 1.0
1 75 75 1.0
1 76 76 1.0
1 77 77 1.0
1 78 78 1.0
1 79 79 1.0
1 80 80 1.0
1 81 81 1.0
1 82 82 1.0
1 83 83 1.0
1 84 84 1.0
1 85 85 1.0
1 86 86 1.0
1 87 87 1.0
1 88 88 1.0
1 89 89 1.0
1 90 90 1.0
1 91 91 1.0
1 92 92 1.0
1 93 93 1.0
1 94 94 1.0
1 95 95 1.0
1 96 96 1.0
1 97 97 1.0
1 98 98 1.0
1 99 99 1.0
1 100 100 1.0
1 101 101 1.0
1 102 102 1.0
1 103 103 1.0
1 104 104 1.0
1 105 105 1.0
1 106 106 1.0
1 107 107 1.0
1 108 108 1.0
1 109 109 1.0
1 110 110 1.0
1 111 111 1.0
1 112 112 1.0
1 113 113 1.0
1 114 114 1.0
1 115 115 1.0
1 116 116 1.0
1 117 117 1.0
1 118 118 1.0
1 119 119 1.0
1 120 120 1.0
1 121 121 1.0
1 122 122 1.0
1 123 123 1.0
1 124 124 1.0
1 125 125 1.0
1 126 126 1.0
1 127 127 1.0
1 128 128 1.0
1 129 129 1.0
1 130 130 1.0
1 131 131 1.0
1 132 132 1.0
1 133 133 1.0
1 134 134 1.0
1 135 135 1.0
1 136 136 1.0
1 137 137 1.0
1 138 138 1.0
1 139 139 1.0
1 140 140 1.0
1 141 141 1.0
1 142 142 1.0
1 143 143 1.0

VAR
1297 1
@0:HVECQKD 1297

CON
205 1
L= 205

OBJACOORD
1
0 1.0

ACOORD
576
0 1 0.5
1 4 0.5
2 1 0.25
2 2 0.3535533905932738
2 4 0.25
3 1 0.25
3 2 -0.3535533905932738
3 4 0.25
4 9 1.0
5 16 0.5
6 25 0.5
7 16 0.25
7 23 0.3535533905932738
7 25 0.25
8 16 0.25
8 23 -0.3535533905932738
8 25 0.25
9 36 1.0
10 49 0.5
11 64 0.5
12 49 0.25
12 62 0.3535533905932738
12 64 0.25
13 49 0.25
13 62 -0.3535533905932738
13 64 0.25
14 81 1.0
15 100 0.5
16 121 0.5
17 100 0.25
17 119 0.3535533905932738
17 121 0.25
18 100 0.25
18 119 -0.3535533905932738
18 121 0.25
19 144 1.0
20 169 0.5
21 196 0.5
22 169 0.25
22 194 0.3535533905932738
22 196 0.25
23 169 0.25
23 194 -0.3535533905932738
23 196 0.25
24 225 1.0
25 256 0.5
26 289 0.5
27 256 0.25
27 287 0.3535533905932738
27 289 0.25
28 256 0.25
28 287 -0.3535533905932738
28 289 0.25
29 324 1.0
30 361 0.5
31 400 0.5
32 361 0.25
32 398 0.3535533905932738
32 400 0.25
33 361 0.25
33 398 -0.3535533905932738
33 400 0.25
34 441 1.0
35 484 0.5
36 529 0.5
37 484 0.25
37 527 0.3535533905932738
37 529 0.25
38 484 0.25
38 527 -0.3535533905932738
38 529 0.25
39 576 1.0
40 625 0.5
41 676 0.5
42 625 0.25
42 674 0.3535533905932738
42 676 0.25
43 625 0.25
43 674 -0.3535533905932738
43 676 0.25
44 729 1.0
45 784 0.5
46 841 0.5
47 784 0.25
47 839 0.3535533905932738
47 841 0.25
48 784 0.25
48 839 -0.3535533905932738
48 841 0.25
49 900 1.0
50 961 0.5
51 1024 0.5
52 961 0.25
52 1022 0.3535533905932738
52 1024 0.25
53 961 0.25
53 1022 -0.3535533905932738
53 1024 0.25
54 1089 1.0
55 1156 0.5
56 1225 0.5
57 1156 0.25
57 1223 0.3535533905932738
57 1225 0.25
58 1156 0.25
58 1223 -0.3535533905932738
58 1225 0.25
59 1296 1.0
60 1 1.0
60 4 1.0
60 9 1.0
61 10 1.0
61 19 1.0
61 30 1.0
62 37 1.0
62 52 1.0
62 69 1.0
63 82 1.0
63 103 1.0
63 126 1.0
64 145 1.0
64 172 1.0
64 201 1.0
65 226 1.0
65 259 1.0
65 294 1.0
66 325 1.0
66 364 1.0
66 405 1.0
67 442 1.0
67 487 1.0
67 534 1.0
68 577 1.0
68 628 1.0
68 681 1.0
69 730 1.0
69 787 1.0
69 846 1.0
70 901 1.0
70 964 1.0
70 1029 1.0
71 1090 1.0
71 1159 1.0
71 1230 1.0
72 11 -1.0
72 20 -1.0
72 31 -1.0
73 16 1.0
73 25 1.0
73 36 1.0
74 43 1.0
74 58 1.0
74 75 1.0
75 88 1.0
75 109 1.0
75 132 1.0
76 151 1.0
76 178 1.0
76 207 1.0
77 232 1.0
77 265 1.0
77 300 1.0
78 331 1.0
78 370 1.0
78 411 1.0
79 448 1.0
79 493 1.0
79 540 1.0
80 583 1.0
80 634 1.0
80 687 1.0
81 736 1.0
81 793 1.0
81 852 1.0
82 907 1.0
82 970 1.0
82 1035 1.0
83 1096 1.0
83 1165 1.0
83 1236 1.0
84 38 -1.0
84 53 -1.0
84 70 -1.0
85 44 -1.0
85 59 -1.0
85 76 -1.0
86 49 1.0
86 64 1.0
86 81 1.0
87 94 1.0
87 115 1.0
87 138 1.0
88 157 1.0
88 184 1.0
88 213 1.0
89 238 1.0
89 271 1.0
89 306 1.0
90 337 1.0
90 376 1.0
90 417 1.0
91 454 1.0
91 499 1.0
91 546 1.0
92 589 1.0
92 640 1.0
92 693 1.0
93 742 1.0
93 799 1.0
93 858 1.0
94 913 1.0
94 976 1.0
94 1041 1.0
95 1102 1.0
95 1171 1.0
95 1242 1.0
96 83 -1.0
96 104 -1.0
96 127 -1.0
97 89 -1.0
97 110 -1.0
97 133 -1.0
98 95 -1.0
98 116 -1.0
98 139 -1.0
99 100 1.0
99 121 1.0
99 144 1.0
100 163 1.0
100 190 1.0
100 219 1.0
101 244 1.0
101 277 1.0
101 312 1.0
102 343 1.0
102 382 1.0
102 423 1.0
103 460 1.0
103 505 1.0
103 552 1.0
104 595 1.0
104 646 1.0
104 699 1.0
105 748 1.0
105 805 1.0
105 864 1.0
106 919 1.0
106 982 1.0
106 1047 1.0
107 1108 1.0
107 1177 1.0
107 1248 1.0
108 146 -1.0
108 173 -1.0
108 202 -1.0
109 152 -1.0
109 179 -1.0
109 208 -1.0
110 158 -1.0
110 185 -1.0
110 214 -1.0
111 164 -1.0
111 191 -1.0
111 220 -1.0
112 169 1.0
112 196 1.0
112 225 1.0
113 250 1.0
113 283 1.0
113 318 1.0
114 349 1.0
114 388 1.0
114 429 1.0
115 466 1.0
115 511 1.0
115 558 1.0
116 601 1.0
116 652 1.0
116 705 1.0
117 754 1.0
117 811 1.0
117 870 1.0
118 925 1.0
118 988 1.0
118 1053 1.0
119 1114 1.0
119 1183 1.0
119 1254 1.0
120 227 -1.0
120 260 -1.0
120 295 -1.0
121 233 -1.0
121 266 -1.0
121 301 -1.0
122 239 -1.0
122 272 -1.0
122 307 -1.0
123 245 -1.0
123 278 -1.0
123 313 -1.0
124 251 -1.0
124 284 -1.0
124 319 -1.0
125 256 1.0
125 289 1.0
125 324 1.0
126 355 1.0
126 394 1.0
126 435 1.0
127 472 1.0
127 517 1.0
127 564 1.0
128 607 1.0
128 658 1.0
128 711 1.0
129 760 1.0
129 817 1.0
129 876 1.0
130 931 1.0
130 994 1.0
130 1059 1.0
131 1120 1.0
131 1189 1.0
131 1260 1.0
132 326 -1.0
132 365 -1.0
132 406 -1.0
133 332 -1.0
133 371 -1.0
133 412 -1.0
134 338 -1.0
134 377 -1.0
134 418 -1.0
135 344 -1.0
135 383 -1.0
135 424 -1.0
136 350 -1.0
136 389 -1.0
136 430 -1.0
137 356 -1.0
137 395 -1.0
137 436 -1.0
138 361 1.0
138 400 1.0
138 441 1.0
139 478 1.0
139 523 1.0
139 570 1.0
140 613 1.0
140 664 1.0
140 717 1.0
141 766 1.0
141 823 1.0
141 882 1.0
142 937 1.0
142 1000 1.0
142 1065 1.0
143 1126 1.0
143 1195 1.0
143 1266 1.0
144 443 -1.0
144 488 -1.0
144 535 -1.0
145 449 -1.0
145 494 -1.0
145 541 -1.0
146 455 -1.0
146 500 -1.0
146 547 -1.0
147 461 -1.0
147 506 -1.0
147 553 -1.0
148 467 -1.0
148 512 -1.0
148 559 -1.0
149 473 -1.0
149 518 -1.0
149 565 -1.0
150 479 -1.0
150 524 -1.0
150 571 -1.0
151 484 1.0
151 529 1.0
151 576 1.0
152 619 1.0
152 670 1.0
152 723 1.0
153 772 1.0
153 829 1.0
153 888 1.0
154 943 1.0
154 1006 1.0
154 1071 1.0
155 1132 1.0
155 1201 1.0
155 1272 1.0
156 578 -1.0
156 629 -1.0
156 682 -1.0
157 584 -1.0
157 635 -1.0
157 688 -1.0
158 590 -1.0
158 641 -1.0
158 694 -1.0
159 596 -1.0
159 647 -1.0
159 700 -1.0
160 602 -1.0
160 653 -1.0
160 706 -1.0
161 608 -1.0
161 659 -1.0
161 712 -1.0
162 614 -1.0
162 665 -1.0
162 718 -1.0
163 620 -1.0
163 671 -1.0
163 724 -1.0
164 625 1.0
164 676 1.0
164 729 1.0
165 778 1.0
165 835 1.0
165 894 1.0
166 949 1.0
166 1012 1.0
166 1077 1.0
167 1138 1.0
167 1207 1.0
167 1278 1.0
168 731 -1.0
168 788 -1.0
168 847 -1.0
169 737 -1.0
169 794 -1.0
169 853 -1.0
170 743 -1.0
170 800 -1.0
170 859 -1.0
171 749 -1.0
171 806 -1.0
171 865 -1.0
172 755 -1.0
172 812 -1.0
172 871 -1.0
173 761 -1.0
173 818 -1.0
173 877 -1.0
174 767 -1.0
174 824 -1.0
174 883 -1.0
175 773 -1.0
175 830 -1.0
175 889 -1.0
176 779 -1.0
176 836 -1.0
176 895 -1.0
177 784 1.0
177 841 1.0
177 900 1.0
178 955 1.0
178 1018 1.0
178 1083 1.0
179 1144 1.0
179 1213 1.0
179 1284 1.0
180 902 -1.0
180 965 -1.0
180 1030 -1.0
181 908 -1.0
181 971 -1.0
181 1036 -1.0
182 914 -1.0
182 977 -1.0
182 1042 -1.0
183 920 -1.0
183 983 -1.0
183 1048 -1.0
184 926 -1.0
184 989 -1.0
184 1054 -1.0
185 932 -1.0
185 995 -1.0
185 1060 -1.0
186 938 -1.0
186 1001 -1.0
186 1066 -1.0
187 944 -1.0
187 1007 -1.0
187 1072 -1.0
188 950 -1.0
188 1013 -1.0
188 1078 -1.0
189 956 -1.0
189 1019 -1.0
189 1084 -1.0
190 961 1.0
190 1024 1.0
190 1089 1.0
191 1150 1.0
191 1219 1.0
191 1290 1.0
192 1091 -1.0
192 1160 -1.0
192 1231 -1.0
193 1097 -1.0
193 1166 -1.0
193 1237 -1.0
194 1103 -1.0
194 1172 -1.0
194 1243 -1.0
195 1109 -1.0
195 1178 -1.0
195 1249 -1.0
196 1115 -1.0
196 1184 -1.0
196 1255 -1.0
197 1121 -1.0
197 1190 -1.0
197 1261 -1.0
198 1127 -1.0
198 1196 -1.0
198 1267 -1.0
199 1133 -1.0
199 1202 -1.0
199 1273 -1.0
200 1139 -1.0
200 1208 -1.0
200 1279 -1.0
201 1145 -1.0
201 1214 -1.0
201 1285 -1.0
202 1151 -1.0
202 1220 -1.0
202 1291 -1.0
203 1156 1.0
203 1225 1.0
203 1296 1.0
204 1 1.0
204 4 1.0
204 9 1.0
204 16 1.0
204 25 1.0
204 36 1.0
204 49 1.0
204 64 1.0
204 81 1.0
204 100 1.0
204 121 1.0
204 144 1.0
204 169 1.0
204 196 1.0
204 225 1.0
204 256 1.0
204 289 1.0
204 324 1.0
204 361 1.0
204 400 1.0
204 441 1.0
204 484 1.0
204 529 1.0
204 576 1.0
204 625 1.0
204 676 1.0
204 729 1.0
204 784 1.0
204 841 1.0
204 900 1.0
204 961 1.0
204 1024 1.0
204 1089 1.0
204 1156 1.0
204 1225 1.0
204 1296 1.0

BCOORD
187
0 2.9608531262809618e-05
1 3.095936173420447e-07
2 1.7806630662052514e-05
3 1.211149421809915e-05
4 0.08327349708357301
5 3.095936173420447e-07
6 2.9608531262809618e-05
7 1.211149421809915e-05
8 1.7806630662052514e-05
9 0.08327349708357301
10 1.211149421809915e-05
11 1.7806630662052514e-05
12 2.9608531262809618e-05
13 3.095936173420447e-07
14 0.08327349708357301
15 1.7806630662052514e-05
16 1.211149421809915e-05
17 3.095936173420447e-07
18 2.9608531262809618e-05
19 0.08327349708357301
20 2.9608531262809618e-05
21 3.095936173420447e-07
22 1.7806630662052514e-05
23 1.211149421809915e-05
24 0.08327349708357301
25 3.095936173420447e-07
26 2.9608531262809618e-05
27 1.211149421809915e-05
28 1.7806630662052514e-05
29 0.08327349708357301
30 1.211149421809915e-05
31 1.7806630662052514e-05
32 2.9608531262809618e-05
33 3.095936173420447e-07
34 0.08327349708357301
35 1.7806630662052514e-05
36 1.211149421809915e-05
37 3.095936173420447e-07
38 2.9608531262809618e-05
39 0.08327349708357301
40 2.9608531262809618e-05
41 3.095936173420447e-07
42 1.7806630662052514e-05
43 1.211149421809915e-05
44 0.08327349708357301
45 3.095936173420447e-07
46 2.9608531262809618e-05
47 1.211149421809915e-05
48 1.7806630662052514e-05
49 0.08327349708357301
50 1.211149421809915e-05
51 1.7806630662052514e-05
52 2.9608531262809618e-05
53 3.095936173420447e-07
54 0.08327349708357301
55 1.7806630662052514e-05
56 1.211149421809915e-05
57 3.095936173420447e-07
58 2.9608531262809618e-05
59 0.08327349708357301
60 0.08333333333333333
61 0.11551752146754397
62 0.11667265798346468
63 0.11667265798346468
64 0.11435094813749536
65 0.11551752146754397
66 0.11394948847957567
67 0.11593030242207014
68 0.11435094813749536
69 0.11551752146754397
70 0.11593030242207014
71 0.11394948847957567
73 0.08333333333333333
74 0.11667265798346468
75 0.11667265798346468
76 0.11551752146754397
77 0.11435094813749536
78 0.11593030242207014
79 0.11394948847957567
80 0.11551752146754397
81 0.11435094813749536
82 0.11394948847957567
83 0.11593030242207014
84 0.0011667654722763397
85 -0.0011667654722763397
86 0.08333333333333333
87 0.11551752146754397
88 0.11593030242207014
89 0.11394948847957567
90 0.11435094813749536
91 0.11551752146754397
92 0.11394948847957567
93 0.11593030242207014
94 0.11435094813749536
95 0.11551752146754397
96 -0.0011667654722763397
97 0.0011667654722763397
99 0.08333333333333333
100 0.11394948847957567
101 0.11593030242207014
102 0.11551752146754397
103 0.11435094813749536
104 0.11593030242207014
105 0.11394948847957567
106 0.11551752146754397
107 0.11435094813749536
108 0.001980814606100509
110 0.0015837358927087263
111 0.00041708593795000405
112 0.08333333333333333
113 0.11551752146754397
114 0.11667265798346468
115 0.11667265798346468
116 0.11435094813749536
117 0.11551752146754397
118 0.11394948847957567
119 0.11593030242207014
121 0.001980814606100509
122 0.00041708593795000405
123 0.0015837358927087263
125 0.08333333333333333
126 0.11667265798346468
127 0.11667265798346468
128 0.11551752146754397
129 0.11435094813749536
130 0.11593030242207014
131 0.11394948847957567
132 0.00041708593795000405
133 0.0015837358927087263
134 0.001980814606100509
136 0.00116676547227634
137 -0.00116676547227634
138 0.08333333333333333
139 0.11551752146754397
140 0.11593030242207014
141 0.11394948847957567
142 0.11435094813749536
143 0.11551752146754397
144 0.0015837358927087263
145 0.00041708593795000405
147 0.001980814606100509
148 -0.00116676547227634
149 0.00116676547227634
151 0.08333333333333333
152 0.11394948847957567
153 0.11593030242207014
154 0.11551752146754397
155 0.11435094813749536
156 -0.0019808146061005088
158 -0.0004170859379500037
159 -0.0015837358927087263
160 0.0019808146061005088
162 0.0015837358927087266
163 0.00041708593795000345
164 0.08333333333333333
165 0.11551752146754397
166 0.11667265798346468
167 0.11667265798346468
169 -0.0019808146061005088
170 -0.0015837358927087263
171 -0.0004170859379500037
173 0.0019808146061005088
174 0.00041708593795000345
175 0.0015837358927087266
177 0.08333333333333333
178 0.11667265798346468
179 0.11667265798346468
180 -0.0015837358927087263
181 -0.0004170859379500037
182 -0.0019808146061005088
184 0.00041708593795000345
185 0.0015837358927087266
186 0.0019808146061005088
188 0.00116676547227634
189 -0.00116676547227634
190 0.08333333333333333
191 0.11551752146754397
192 -0.0004170859379500037
193 -0.0015837358927087263
195 -0.0019808146061005088
196 0.0015837358927087266
197 0.00041708593795000345
199 0.0019808146061005088
200 -0.00116676547227634
201 0.00116676547227634
203 0.08333333333333333
204 1.0
